149
1000000
62180
140216
25686
7060
213182
107514
106686
345105
195579
472011
427841
262092
210574
184807
10125
268031
96406
67300
118262
299492
418614
55127
196834
159374
1998
81463
183676
116405
354214
204478
320254
117726
114310
55033
416382
73397
183378
55611
145893
374329
273726
267936
63249
277865
288468
74072
13046
109342
380602
156749
100400
302345
88480
211244
458522
200
140955
342871
277100
7355
362926
92563
367591
291657
404627
353491
181727
22950
165446
307794
32221
311051
18905
390236
454105
311912
271454
67532
141889
20260
85565
380361
8559
431893
225105
140302
450889
50257
196304
81324
327013
404917
12705
343369
185346
182161
161257
334669
322059
68654
76490
277142
53358
54686
47357
158592
298473
83460
77256
135340
386997
311207
77198
270089
280141
433657
44391
361700
192552
461347
189617
3497
355232
107984
45617
245934
436684
323916
72530
60032
132284
203704
486176
286685
118584
47770
127497
112846
381589
65586
325896
167989
245118
210346
423551
46367
333545
72376
243397
